data/dat/R071.dat
/* Cplex Data generated on 2017-12-16 */

k = 6;

b = 3;

AtomicConstraints = {
	 <6, 1>,
	 <6, 2>,
	 <6, 3>,
	 <5, 1>,
	 <5, 2>,
	 <5, 3>,
	 <4, 1>,
	 <4, 2>,
	 <4, 3>,
	 <4, 6>,
	 }; 

SoftAtomicConstraints = {
	 <2, 1>,
	 <3, 2>,
	 <4, 5>,
	 }; 

DisjunctiveConstraints = {
	 <2, 3, 2, 1>,
	 }; 

DirectSuccessors = {
	1,
	2,
	3,
	6,
	5,
	4,
	 }; 

