data/dzn/R071.dzn
k = 6;
b = 3;
AtomicConstraints =  [|
6, 1|
	6, 2|
	6, 3|
	5, 1|
	5, 2|
	5, 3|
	4, 1|
	4, 2|
	4, 3|
	4, 6|];
DisjunctiveConstraints =  [|2, 3, 2, 1|];
SoftAtomicConstraints =  [|
2, 1|
3, 2|
4, 5|];
DirectSuccessors =  [1,
2,
3,
6,
5,
4];
